70
1 0 64
2 0 70
2 1 43
3 0 57
3 1 8
3 2 64
4 0 48
4 1 49
4 2 62
4 3 24
5 0 7
5 1 25
5 2 97
5 3 63
5 4 15
6 0 38
6 1 43
6 2 8
6 3 5
6 4 68
6 5 6
7 0 3
7 1 39
7 2 97
7 3 23
7 4 100
7 5 45
7 6 30
8 0 19
8 1 91
8 2 28
8 3 69
8 4 35
8 5 19
8 6 1
8 7 43
9 0 41
9 1 73
9 2 84
9 3 64
9 4 59
9 5 71
9 6 86
9 7 74
9 8 49
10 0 66
10 1 77
10 2 75
10 3 53
10 4 40
10 5 89
10 6 83
10 7 76
10 8 70
10 9 23
11 0 34
11 1 61
11 2 77
11 3 48
11 4 33
11 5 93
11 6 95
11 7 10
11 8 41
11 9 24
11 10 27
12 0 96
12 1 10
12 2 22
12 3 61
12 4 23
12 5 40
12 6 65
12 7 67
12 8 33
12 9 4
12 10 50
12 11 17
13 0 29
13 1 65
13 2 83
13 3 71
13 4 78
13 5 93
13 6 68
13 7 34
13 8 60
13 9 30
13 10 12
13 11 84
13 12 48
14 0 93
14 1 11
14 2 13
14 3 44
14 4 92
14 5 95
14 6 38
14 7 8
14 8 7
14 9 32
14 10 72
14 11 46
14 12 56
14 13 27
15 0 63
15 1 58
15 2 40
15 3 69
15 4 44
15 5 54
15 6 58
15 7 3
15 8 43
15 9 87
15 10 18
15 11 43
15 12 53
15 13 69
15 14 86
16 0 37
16 1 66
16 2 61
16 3 64
16 4 59
16 5 7
16 6 52
16 7 74
16 8 96
16 9 31
16 10 83
16 11 87
16 12 37
16 13 67
16 14 62
16 15 43
17 0 96
17 1 32
17 2 85
17 3 28
17 4 29
17 5 26
17 6 59
17 7 18
17 8 11
17 9 4
17 10 92
17 11 7
17 12 90
17 13 72
17 14 97
17 15 72
17 16 50
18 0 57
18 1 16
18 2 40
18 3 23
18 4 58
18 5 77
18 6 69
18 7 49
18 8 57
18 9 25
18 10 55
18 11 72
18 12 59
18 13 100
18 14 24
18 15 19
18 16 2
18 17 44
19 0 71
19 1 1
19 2 32
19 3 70
19 4 56
19 5 24
19 6 46
19 7 23
19 8 80
19 9 18
19 10 59
19 11 1
19 12 73
19 13 7
19 14 18
19 15 42
19 16 96
19 17 79
19 18 7
20 0 74
20 1 33
20 2 38
20 3 84
20 4 88
20 5 4
20 6 39
20 7 58
20 8 97
20 9 52
20 10 33
20 11 5
20 12 61
20 13 72
20 14 91
20 15 60
20 16 21
20 17 81
20 18 71
20 19 49
21 0 54
21 1 64
21 2 43
21 3 49
21 4 47
21 5 22
21 6 94
21 7 85
21 8 60
21 9 24
21 10 84
21 11 94
21 12 100
21 13 34
21 14 7
21 15 35
21 16 64
21 17 58
21 18 92
21 19 7
21 20 91
22 0 55
22 1 49
22 2 13
22 3 49
22 4 74
22 5 30
22 6 79
22 7 40
22 8 30
22 9 79
22 10 14
22 11 91
22 12 38
22 13 80
22 14 83
22 15 94
22 16 50
22 17 24
22 18 1
22 19 72
22 20 79
22 21 68
23 0 4
23 1 8
23 2 90
23 3 42
23 4 30
23 5 73
23 6 10
23 7 31
23 8 29
23 9 12
23 10 73
23 11 50
23 12 78
23 13 98
23 14 3
23 15 68
23 16 70
23 17 47
23 18 16
23 19 67
23 20 14
23 21 69
23 22 72
24 0 34
24 1 47
24 2 89
24 3 18
24 4 21
24 5 64
24 6 52
24 7 15
24 8 23
24 9 99
24 10 31
24 11 18
24 12 67
24 13 26
24 14 57
24 15 66
24 16 91
24 17 61
24 18 70
24 19 99
24 20 76
24 21 77
24 22 64
24 23 4
25 0 63
25 1 67
25 2 41
25 3 66
25 4 37
25 5 25
25 6 35
25 7 67
25 8 93
25 9 16
25 10 53
25 11 62
25 12 13
25 13 62
25 14 40
25 15 29
25 16 96
25 17 67
25 18 79
25 19 66
25 20 32
25 21 57
25 22 68
25 23 84
25 24 31
26 0 100
26 1 49
26 2 23
26 3 18
26 4 46
26 5 65
26 6 85
26 7 71
26 8 96
26 9 91
26 10 61
26 11 60
26 12 73
26 13 44
26 14 97
26 15 14
26 16 93
26 17 78
26 18 34
26 19 27
26 20 17
26 21 27
26 22 100
26 23 74
26 24 59
26 25 27
27 0 57
27 1 6
27 2 74
27 3 62
27 4 13
27 5 29
27 6 39
27 7 93
27 8 68
27 9 7
27 10 28
27 11 66
27 12 57
27 13 38
27 14 15
27 15 24
27 16 76
27 17 75
27 18 73
27 19 47
27 20 48
27 21 15
27 22 47
27 23 13
27 24 39
27 25 70
27 26 26
28 0 50
28 1 32
28 2 83
28 3 28
28 4 5
28 5 31
28 6 66
28 7 89
28 8 84
28 9 36
28 10 69
28 11 12
28 12 2
28 13 35
28 14 4
28 15 7
28 16 72
28 17 74
28 18 87
28 19 59
28 20 20
28 21 26
28 22 70
28 23 67
28 24 82
28 25 61
28 26 69
28 27 60
29 0 55
29 1 82
29 2 30
29 3 97
29 4 80
29 5 90
29 6 71
29 7 73
29 8 91
29 9 84
29 10 87
29 11 13
29 12 62
29 13 12
29 14 32
29 15 30
29 16 19
29 17 38
29 18 92
29 19 54
29 20 19
29 21 74
29 22 16
29 23 76
29 24 1
29 25 98
29 26 79
29 27 68
29 28 67
30 0 70
30 1 90
30 2 62
30 3 40
30 4 2
30 5 60
30 6 97
30 7 14
30 8 45
30 9 3
30 10 76
30 11 98
30 12 8
30 13 36
30 14 96
30 15 100
30 16 12
30 17 91
30 18 27
30 19 23
30 20 53
30 21 68
30 22 63
30 23 63
30 24 21
30 25 80
30 26 68
30 27 22
30 28 99
30 29 73
31 0 1
31 1 86
31 2 44
31 3 28
31 4 73
31 5 35
31 6 15
31 7 71
31 8 85
31 9 66
31 10 12
31 11 50
31 12 46
31 13 67
31 14 33
31 15 56
31 16 69
31 17 62
31 18 62
31 19 93
31 20 97
31 21 16
31 22 48
31 23 30
31 24 95
31 25 73
31 26 42
31 27 89
31 28 36
31 29 58
31 30 94
32 0 45
32 1 38
32 2 85
32 3 28
32 4 54
32 5 45
32 6 28
32 7 57
32 8 21
32 9 57
32 10 57
32 11 92
32 12 81
32 13 59
32 14 59
32 15 68
32 16 66
32 17 86
32 18 71
32 19 85
32 20 58
32 21 34
32 22 18
32 23 34
32 24 69
32 25 19
32 26 19
32 27 72
32 28 92
32 29 16
32 30 1
32 31 45
33 0 7
33 1 47
33 2 58
33 3 83
33 4 58
33 5 100
33 6 17
33 7 21
33 8 8
33 9 89
33 10 5
33 11 13
33 12 51
33 13 97
33 14 42
33 15 40
33 16 42
33 17 60
33 18 93
33 19 40
33 20 66
33 21 74
33 22 55
33 23 98
33 24 63
33 25 47
33 26 64
33 27 91
33 28 73
33 29 20
33 30 44
33 31 53
33 32 75
34 0 26
34 1 41
34 2 24
34 3 32
34 4 75
34 5 4
34 6 100
34 7 60
34 8 70
34 9 16
34 10 68
34 11 94
34 12 89
34 13 84
34 14 36
34 15 14
34 16 9
34 17 28
34 18 62
34 19 46
34 20 38
34 21 49
34 22 49
34 23 61
34 24 84
34 25 56
34 26 66
34 27 40
34 28 79
34 29 79
34 30 100
34 31 65
34 32 45
34 33 99
35 0 68
35 1 66
35 2 59
35 3 80
35 4 27
35 5 23
35 6 48
35 7 76
35 8 59
35 9 13
35 10 52
35 11 45
35 12 41
35 13 56
35 14 92
35 15 6
35 16 6
35 17 70
35 18 69
35 19 11
35 20 55
35 21 80
35 22 58
35 23 16
35 24 93
35 25 13
35 26 84
35 27 79
35 28 88
35 29 80
35 30 90
35 31 22
35 32 67
35 33 36
35 34 33
36 0 23
36 1 14
36 2 55
36 3 73
36 4 39
36 5 35
36 6 71
36 7 33
36 8 63
36 9 83
36 10 72
36 11 56
36 12 73
36 13 82
36 14 43
36 15 72
36 16 32
36 17 83
36 18 92
36 19 71
36 20 30
36 21 37
36 22 20
36 23 21
36 24 96
36 25 80
36 26 1
36 27 99
36 28 9
36 29 51
36 30 98
36 31 13
36 32 82
36 33 97
36 34 16
36 35 30
37 0 20
37 1 35
37 2 80
37 3 47
37 4 49
37 5 71
37 6 94
37 7 67
37 8 81
37 9 2
37 10 91
37 11 60
37 12 68
37 13 44
37 14 16
37 15 30
37 16 38
37 17 69
37 18 81
37 19 20
37 20 48
37 21 39
37 22 80
37 23 6
37 24 64
37 25 71
37 26 72
37 27 92
37 28 72
37 29 71
37 30 56
37 31 86
37 32 85
37 33 26
37 34 94
37 35 21
37 36 76
38 0 35
38 1 65
38 2 59
38 3 83
38 4 14
38 5 54
38 6 88
38 7 38
38 8 30
38 9 8
38 10 97
38 11 29
38 12 12
38 13 4
38 14 88
38 15 10
38 16 73
38 17 26
38 18 80
38 19 85
38 20 37
38 21 40
38 22 75
38 23 62
38 24 35
38 25 10
38 26 29
38 27 39
38 28 46
38 29 97
38 30 30
38 31 70
38 32 67
38 33 35
38 34 73
38 35 19
38 36 51
38 37 77
39 0 99
39 1 10
39 2 57
39 3 52
39 4 19
39 5 27
39 6 80
39 7 74
39 8 56
39 9 5
39 10 71
39 11 1
39 12 65
39 13 53
39 14 59
39 15 32
39 16 26
39 17 66
39 18 31
39 19 84
39 20 6
39 21 23
39 22 44
39 23 96
39 24 42
39 25 98
39 26 64
39 27 49
39 28 93
39 29 10
39 30 62
39 31 98
39 32 62
39 33 95
39 34 1
39 35 50
39 36 80
39 37 82
39 38 15
40 0 43
40 1 13
40 2 95
40 3 46
40 4 8
40 5 23
40 6 26
40 7 89
40 8 18
40 9 4
40 10 37
40 11 82
40 12 48
40 13 68
40 14 98
40 15 17
40 16 10
40 17 56
40 18 64
40 19 66
40 20 40
40 21 92
40 22 45
40 23 59
40 24 42
40 25 11
40 26 31
40 27 47
40 28 13
40 29 34
40 30 63
40 31 33
40 32 19
40 33 53
40 34 72
40 35 74
40 36 81
40 37 74
40 38 25
40 39 60
41 0 99
41 1 5
41 2 53
41 3 40
41 4 28
41 5 9
41 6 37
41 7 58
41 8 61
41 9 44
41 10 94
41 11 97
41 12 16
41 13 71
41 14 77
41 15 57
41 16 8
41 17 91
41 18 84
41 19 19
41 20 54
41 21 46
41 22 49
41 23 62
41 24 62
41 25 12
41 26 45
41 27 38
41 28 76
41 29 33
41 30 28
41 31 27
41 32 97
41 33 5
41 34 8
41 35 17
41 36 94
41 37 2
41 38 21
41 39 90
41 40 68
42 0 92
42 1 32
42 2 6
42 3 55
42 4 98
42 5 8
42 6 13
42 7 63
42 8 92
42 9 28
42 10 30
42 11 73
42 12 37
42 13 17
42 14 80
42 15 68
42 16 9
42 17 37
42 18 64
42 19 63
42 20 57
42 21 62
42 22 9
42 23 46
42 24 97
42 25 8
42 26 34
42 27 51
42 28 48
42 29 21
42 30 10
42 31 29
42 32 38
42 33 25
42 34 8
42 35 92
42 36 49
42 37 84
42 38 66
42 39 32
42 40 95
42 41 43
43 0 18
43 1 53
43 2 21
43 3 32
43 4 63
43 5 64
43 6 88
43 7 70
43 8 65
43 9 15
43 10 78
43 11 87
43 12 27
43 13 82
43 14 34
43 15 53
43 16 56
43 17 32
43 18 11
43 19 95
43 20 27
43 21 22
43 22 14
43 23 17
43 24 24
43 25 9
43 26 53
43 27 82
43 28 81
43 29 85
43 30 10
43 31 2
43 32 87
43 33 49
43 34 46
43 35 43
43 36 16
43 37 100
43 38 55
43 39 58
43 40 82
43 41 100
43 42 53
44 0 96
44 1 48
44 2 34
44 3 67
44 4 38
44 5 36
44 6 85
44 7 58
44 8 77
44 9 8
44 10 88
44 11 90
44 12 41
44 13 23
44 14 32
44 15 24
44 16 4
44 17 86
44 18 32
44 19 17
44 20 64
44 21 48
44 22 76
44 23 36
44 24 66
44 25 23
44 26 32
44 27 26
44 28 98
44 29 20
44 30 70
44 31 94
44 32 97
44 33 22
44 34 16
44 35 90
44 36 32
44 37 54
44 38 68
44 39 4
44 40 68
44 41 11
44 42 25
44 43 9
45 0 5
45 1 60
45 2 14
45 3 12
45 4 64
45 5 14
45 6 12
45 7 7
45 8 62
45 9 60
45 10 4
45 11 30
45 12 82
45 13 80
45 14 22
45 15 59
45 16 60
45 17 94
45 18 53
45 19 18
45 20 9
45 21 27
45 22 15
45 23 77
45 24 80
45 25 58
45 26 34
45 27 50
45 28 24
45 29 33
45 30 79
45 31 30
45 32 88
45 33 18
45 34 30
45 35 34
45 36 83
45 37 45
45 38 85
45 39 22
45 40 95
45 41 69
45 42 46
45 43 25
45 44 23
46 0 41
46 1 22
46 2 99
46 3 76
46 4 68
46 5 43
46 6 81
46 7 51
46 8 3
46 9 83
46 10 24
46 11 85
46 12 4
46 13 27
46 14 21
46 15 50
46 16 43
46 17 33
46 18 71
46 19 25
46 20 51
46 21 65
46 22 21
46 23 75
46 24 44
46 25 18
46 26 96
46 27 19
46 28 53
46 29 49
46 30 13
46 31 64
46 32 56
46 33 68
46 34 20
46 35 34
46 36 94
46 37 90
46 38 24
46 39 31
46 40 1
46 41 29
46 42 87
46 43 2
46 44 99
46 45 71
47 0 13
47 1 89
47 2 31
47 3 97
47 4 46
47 5 3
47 6 21
47 7 8
47 8 57
47 9 42
47 10 4
47 11 83
47 12 97
47 13 38
47 14 57
47 15 84
47 16 26
47 17 13
47 18 12
47 19 69
47 20 63
47 21 66
47 22 53
47 23 94
47 24 8
47 25 41
47 26 16
47 27 7
47 28 29
47 29 30
47 30 38
47 31 58
47 32 28
47 33 12
47 34 41
47 35 2
47 36 7
47 37 47
47 38 39
47 39 40
47 40 18
47 41 60
47 42 85
47 43 39
47 44 64
47 45 93
47 46 36
48 0 38
48 1 73
48 2 2
48 3 73
48 4 98
48 5 76
48 6 40
48 7 99
48 8 91
48 9 58
48 10 42
48 11 32
48 12 7
48 13 54
48 14 100
48 15 47
48 16 42
48 17 17
48 18 11
48 19 19
48 20 87
48 21 86
48 22 15
48 23 7
48 24 25
48 25 14
48 26 75
48 27 56
48 28 31
48 29 51
48 30 52
48 31 98
48 32 4
48 33 81
48 34 79
48 35 22
48 36 85
48 37 59
48 38 50
48 39 93
48 40 44
48 41 6
48 42 59
48 43 64
48 44 50
48 45 51
48 46 68
48 47 23
49 0 28
49 1 21
49 2 86
49 3 47
49 4 91
49 5 33
49 6 85
49 7 61
49 8 1
49 9 31
49 10 88
49 11 33
49 12 75
49 13 68
49 14 5
49 15 41
49 16 73
49 17 39
49 18 97
49 19 2
49 20 1
49 21 98
49 22 6
49 23 51
49 24 39
49 25 26
49 26 69
49 27 91
49 28 70
49 29 33
49 30 2
49 31 76
49 32 63
49 33 10
49 34 40
49 35 86
49 36 46
49 37 58
49 38 48
49 39 6
49 40 71
49 41 66
49 42 51
49 43 24
49 44 51
49 45 17
49 46 49
49 47 94
49 48 20
50 0 35
50 1 4
50 2 54
50 3 58
50 4 13
50 5 27
50 6 80
50 7 70
50 8 77
50 9 94
50 10 7
50 11 15
50 12 79
50 13 78
50 14 67
50 15 25
50 16 24
50 17 66
50 18 18
50 19 62
50 20 73
50 21 96
50 22 61
50 23 93
50 24 77
50 25 53
50 26 65
50 27 92
50 28 39
50 29 84
50 30 60
50 31 1
50 32 98
50 33 36
50 34 61
50 35 91
50 36 92
50 37 27
50 38 20
50 39 30
50 40 46
50 41 89
50 42 53
50 43 27
50 44 75
50 45 66
50 46 50
50 47 19
50 48 17
50 49 39
51 0 85
51 1 25
51 2 30
51 3 16
51 4 96
51 5 71
51 6 16
51 7 12
51 8 64
51 9 77
51 10 49
51 11 98
51 12 57
51 13 38
51 14 37
51 15 6
51 16 84
51 17 55
51 18 37
51 19 13
51 20 85
51 21 6
51 22 86
51 23 36
51 24 62
51 25 43
51 26 52
51 27 22
51 28 14
51 29 59
51 30 91
51 31 7
51 32 32
51 33 79
51 34 64
51 35 78
51 36 77
51 37 45
51 38 69
51 39 69
51 40 40
51 41 20
51 42 80
51 43 63
51 44 53
51 45 14
51 46 86
51 47 94
51 48 9
51 49 11
51 50 99
52 0 67
52 1 1
52 2 66
52 3 56
52 4 29
52 5 100
52 6 77
52 7 29
52 8 79
52 9 20
52 10 68
52 11 43
52 12 81
52 13 43
52 14 24
52 15 30
52 16 28
52 17 4
52 18 83
52 19 5
52 20 75
52 21 64
52 22 60
52 23 23
52 24 22
52 25 14
52 26 61
52 27 40
52 28 39
52 29 82
52 30 18
52 31 25
52 32 42
52 33 51
52 34 48
52 35 64
52 36 72
52 37 4
52 38 17
52 39 55
52 40 38
52 41 47
52 42 61
52 43 2
52 44 26
52 45 86
52 46 5
52 47 49
52 48 75
52 49 51
52 50 69
52 51 8
53 0 80
53 1 100
53 2 53
53 3 66
53 4 81
53 5 39
53 6 51
53 7 97
53 8 30
53 9 52
53 10 28
53 11 95
53 12 54
53 13 12
53 14 57
53 15 7
53 16 63
53 17 23
53 18 10
53 19 43
53 20 59
53 21 27
53 22 39
53 23 71
53 24 51
53 25 53
53 26 99
53 27 45
53 28 84
53 29 10
53 30 97
53 31 20
53 32 29
53 33 43
53 34 63
53 35 38
53 36 100
53 37 4
53 38 88
53 39 99
53 40 95
53 41 12
53 42 68
53 43 60
53 44 68
53 45 98
53 46 48
53 47 10
53 48 89
53 49 61
53 50 57
53 51 20
53 52 49
54 0 88
54 1 80
54 2 67
54 3 1
54 4 97
54 5 9
54 6 85
54 7 69
54 8 27
54 9 59
54 10 86
54 11 48
54 12 66
54 13 51
54 14 45
54 15 82
54 16 2
54 17 97
54 18 74
54 19 91
54 20 39
54 21 39
54 22 89
54 23 89
54 24 99
54 25 22
54 26 69
54 27 15
54 28 17
54 29 2
54 30 59
54 31 55
54 32 96
54 33 29
54 34 63
54 35 45
54 36 79
54 37 55
54 38 23
54 39 78
54 40 44
54 41 37
54 42 86
54 43 39
54 44 52
54 45 65
54 46 16
54 47 66
54 48 81
54 49 14
54 50 74
54 51 99
54 52 34
54 53 1
55 0 6
55 1 58
55 2 22
55 3 15
55 4 88
55 5 74
55 6 22
55 7 23
55 8 27
55 9 54
55 10 94
55 11 89
55 12 26
55 13 71
55 14 1
55 15 61
55 16 37
55 17 88
55 18 45
55 19 94
55 20 86
55 21 64
55 22 43
55 23 36
55 24 38
55 25 14
55 26 88
55 27 81
55 28 18
55 29 10
55 30 64
55 31 67
55 32 29
55 33 37
55 34 32
55 35 89
55 36 24
55 37 58
55 38 85
55 39 22
55 40 20
55 41 44
55 42 43
55 43 10
55 44 60
55 45 72
55 46 53
55 47 49
55 48 71
55 49 95
55 50 87
55 51 62
55 52 70
55 53 43
55 54 74
56 0 60
56 1 100
56 2 8
56 3 8
56 4 30
56 5 29
56 6 17
56 7 1
56 8 92
56 9 14
56 10 1
56 11 93
56 12 20
56 13 27
56 14 9
56 15 29
56 16 16
56 17 5
56 18 34
56 19 63
56 20 81
56 21 46
56 22 38
56 23 51
56 24 31
56 25 78
56 26 2
56 27 48
56 28 36
56 29 84
56 30 39
56 31 18
56 32 97
56 33 36
56 34 32
56 35 6
56 36 79
56 37 80
56 38 6
56 39 65
56 40 63
56 41 94
56 42 31
56 43 8
56 44 93
56 45 76
56 46 12
56 47 37
56 48 28
56 49 64
56 50 35
56 51 72
56 52 21
56 53 81
56 54 49
56 55 77
57 0 93
57 1 57
57 2 14
57 3 67
57 4 61
57 5 78
57 6 52
57 7 23
57 8 55
57 9 58
57 10 71
57 11 65
57 12 21
57 13 30
57 14 48
57 15 60
57 16 92
57 17 19
57 18 1
57 19 59
57 20 89
57 21 24
57 22 81
57 23 85
57 24 76
57 25 28
57 26 51
57 27 29
57 28 69
57 29 22
57 30 64
57 31 22
57 32 93
57 33 94
57 34 24
57 35 81
57 36 29
57 37 45
57 38 9
57 39 57
57 40 87
57 41 4
57 42 95
57 43 29
57 44 14
57 45 67
57 46 86
57 47 23
57 48 3
57 49 99
57 50 73
57 51 49
57 52 79
57 53 39
57 54 50
57 55 89
57 56 66
58 0 26
58 1 68
58 2 73
58 3 74
58 4 23
58 5 8
58 6 23
58 7 47
58 8 7
58 9 7
58 10 68
58 11 60
58 12 62
58 13 54
58 14 46
58 15 74
58 16 76
58 17 54
58 18 43
58 19 71
58 20 48
58 21 29
58 22 53
58 23 28
58 24 41
58 25 82
58 26 41
58 27 9
58 28 42
58 29 70
58 30 45
58 31 81
58 32 18
58 33 46
58 34 65
58 35 87
58 36 79
58 37 72
58 38 7
58 39 22
58 40 80
58 41 8
58 42 87
58 43 1
58 44 28
58 45 36
58 46 12
58 47 22
58 48 79
58 49 66
58 50 93
58 51 53
58 52 39
58 53 41
58 54 64
58 55 92
58 56 94
58 57 31
59 0 1
59 1 97
59 2 48
59 3 90
59 4 65
59 5 73
59 6 41
59 7 10
59 8 26
59 9 51
59 10 64
59 11 92
59 12 31
59 13 26
59 14 8
59 15 37
59 16 20
59 17 14
59 18 9
59 19 6
59 20 20
59 21 52
59 22 66
59 23 11
59 24 46
59 25 57
59 26 57
59 27 32
59 28 16
59 29 6
59 30 86
59 31 82
59 32 36
59 33 22
59 34 9
59 35 58
59 36 23
59 37 51
59 38 45
59 39 40
59 40 82
59 41 91
59 42 71
59 43 48
59 44 20
59 45 97
59 46 39
59 47 53
59 48 11
59 49 65
59 50 78
59 51 3
59 52 12
59 53 86
59 54 72
59 55 17
59 56 95
59 57 8
59 58 9
60 0 50
60 1 59
60 2 60
60 3 65
60 4 43
60 5 37
60 6 10
60 7 51
60 8 1
60 9 94
60 10 75
60 11 38
60 12 61
60 13 98
60 14 5
60 15 57
60 16 52
60 17 10
60 18 96
60 19 8
60 20 61
60 21 6
60 22 16
60 23 53
60 24 45
60 25 55
60 26 42
60 27 61
60 28 53
60 29 92
60 30 52
60 31 35
60 32 68
60 33 77
60 34 9
60 35 43
60 36 61
60 37 17
60 38 31
60 39 19
60 40 25
60 41 92
60 42 44
60 43 25
60 44 34
60 45 28
60 46 56
60 47 79
60 48 38
60 49 91
60 50 97
60 51 86
60 52 99
60 53 97
60 54 15
60 55 37
60 56 19
60 57 72
60 58 23
60 59 63
61 0 21
61 1 97
61 2 40
61 3 45
61 4 78
61 5 24
61 6 67
61 7 32
61 8 13
61 9 55
61 10 85
61 11 13
61 12 100
61 13 13
61 14 87
61 15 47
61 16 49
61 17 45
61 18 59
61 19 37
61 20 54
61 21 40
61 22 76
61 23 13
61 24 29
61 25 58
61 26 88
61 27 64
61 28 76
61 29 92
61 30 9
61 31 16
61 32 44
61 33 11
61 34 27
61 35 63
61 36 82
61 37 63
61 38 95
61 39 87
61 40 94
61 41 33
61 42 96
61 43 33
61 44 52
61 45 77
61 46 57
61 47 23
61 48 12
61 49 90
61 50 78
61 51 14
61 52 51
61 53 71
61 54 3
61 55 45
61 56 29
61 57 91
61 58 29
61 59 34
61 60 16
62 0 85
62 1 45
62 2 7
62 3 58
62 4 23
62 5 54
62 6 67
62 7 77
62 8 15
62 9 97
62 10 48
62 11 12
62 12 79
62 13 100
62 14 16
62 15 54
62 16 66
62 17 15
62 18 92
62 19 35
62 20 9
62 21 9
62 22 16
62 23 75
62 24 68
62 25 35
62 26 89
62 27 83
62 28 60
62 29 88
62 30 57
62 31 82
62 32 5
62 33 35
62 34 11
62 35 4
62 36 46
62 37 46
62 38 26
62 39 55
62 40 92
62 41 2
62 42 78
62 43 75
62 44 7
62 45 36
62 46 79
62 47 16
62 48 64
62 49 28
62 50 51
62 51 33
62 52 93
62 53 76
62 54 14
62 55 56
62 56 31
62 57 100
62 58 49
62 59 70
62 60 38
62 61 68
63 0 91
63 1 50
63 2 29
63 3 28
63 4 31
63 5 15
63 6 61
63 7 99
63 8 48
63 9 86
63 10 38
63 11 63
63 12 4
63 13 81
63 14 58
63 15 40
63 16 58
63 17 77
63 18 2
63 19 54
63 20 97
63 21 8
63 22 22
63 23 19
63 24 84
63 25 1
63 26 12
63 27 96
63 28 63
63 29 57
63 30 44
63 31 8
63 32 86
63 33 18
63 34 99
63 35 14
63 36 44
63 37 8
63 38 54
63 39 71
63 40 13
63 41 8
63 42 75
63 43 42
63 44 59
63 45 13
63 46 39
63 47 29
63 48 49
63 49 94
63 50 93
63 51 35
63 52 67
63 53 41
63 54 100
63 55 87
63 56 47
63 57 84
63 58 61
63 59 73
63 60 44
63 61 89
63 62 85
64 0 78
64 1 21
64 2 1
64 3 62
64 4 11
64 5 34
64 6 80
64 7 60
64 8 73
64 9 18
64 10 27
64 11 39
64 12 4
64 13 23
64 14 26
64 15 67
64 16 98
64 17 50
64 18 33
64 19 78
64 20 87
64 21 81
64 22 87
64 23 3
64 24 25
64 25 11
64 26 33
64 27 59
64 28 33
64 29 21
64 30 78
64 31 95
64 32 70
64 33 47
64 34 14
64 35 10
64 36 57
64 37 39
64 38 88
64 39 3
64 40 59
64 41 16
64 42 96
64 43 21
64 44 6
64 45 62
64 46 39
64 47 4
64 48 9
64 49 2
64 50 62
64 51 62
64 52 92
64 53 78
64 54 59
64 55 11
64 56 70
64 57 10
64 58 27
64 59 68
64 60 11
64 61 82
64 62 97
64 63 78
65 0 86
65 1 27
65 2 72
65 3 23
65 4 99
65 5 87
65 6 49
65 7 35
65 8 18
65 9 58
65 10 12
65 11 9
65 12 87
65 13 67
65 14 23
65 15 5
65 16 78
65 17 24
65 18 36
65 19 58
65 20 88
65 21 62
65 22 22
65 23 58
65 24 35
65 25 46
65 26 81
65 27 64
65 28 72
65 29 10
65 30 68
65 31 48
65 32 32
65 33 76
65 34 74
65 35 7
65 36 87
65 37 40
65 38 27
65 39 77
65 40 62
65 41 31
65 42 8
65 43 30
65 44 62
65 45 99
65 46 97
65 47 52
65 48 70
65 49 63
65 50 95
65 51 25
65 52 58
65 53 38
65 54 87
65 55 65
65 56 6
65 57 27
65 58 39
65 59 81
65 60 2
65 61 27
65 62 50
65 63 66
65 64 4
66 0 4
66 1 93
66 2 35
66 3 60
66 4 33
66 5 23
66 6 61
66 7 22
66 8 3
66 9 39
66 10 86
66 11 6
66 12 27
66 13 15
66 14 98
66 15 88
66 16 25
66 17 49
66 18 12
66 19 22
66 20 55
66 21 94
66 22 84
66 23 27
66 24 14
66 25 66
66 26 52
66 27 93
66 28 34
66 29 37
66 30 87
66 31 84
66 32 52
66 33 73
66 34 89
66 35 43
66 36 15
66 37 67
66 38 70
66 39 30
66 40 57
66 41 75
66 42 98
66 43 53
66 44 69
66 45 54
66 46 8
66 47 64
66 48 23
66 49 68
66 50 94
66 51 27
66 52 47
66 53 10
66 54 38
66 55 94
66 56 52
66 57 36
66 58 47
66 59 39
66 60 52
66 61 43
66 62 96
66 63 27
66 64 37
66 65 14
67 0 1
67 1 30
67 2 89
67 3 8
67 4 78
67 5 19
67 6 41
67 7 91
67 8 48
67 9 81
67 10 34
67 11 11
67 12 97
67 13 48
67 14 15
67 15 80
67 16 17
67 17 40
67 18 73
67 19 13
67 20 63
67 21 48
67 22 20
67 23 23
67 24 18
67 25 25
67 26 61
67 27 93
67 28 49
67 29 51
67 30 93
67 31 64
67 32 90
67 33 79
67 34 53
67 35 5
67 36 91
67 37 6
67 38 98
67 39 59
67 40 15
67 41 3
67 42 58
67 43 89
67 44 74
67 45 1
67 46 41
67 47 53
67 48 36
67 49 34
67 50 55
67 51 89
67 52 46
67 53 57
67 54 67
67 55 93
67 56 33
67 57 17
67 58 41
67 59 16
67 60 15
67 61 32
67 62 5
67 63 11
67 64 6
67 65 5
67 66 43
68 0 15
68 1 88
68 2 89
68 3 15
68 4 38
68 5 20
68 6 59
68 7 51
68 8 90
68 9 79
68 10 85
68 11 71
68 12 91
68 13 57
68 14 85
68 15 24
68 16 19
68 17 67
68 18 18
68 19 50
68 20 95
68 21 25
68 22 52
68 23 15
68 24 33
68 25 18
68 26 89
68 27 59
68 28 72
68 29 71
68 30 63
68 31 68
68 32 90
68 33 61
68 34 31
68 35 59
68 36 62
68 37 65
68 38 9
68 39 33
68 40 3
68 41 27
68 42 51
68 43 39
68 44 22
68 45 77
68 46 55
68 47 56
68 48 68
68 49 40
68 50 37
68 51 82
68 52 50
68 53 24
68 54 30
68 55 87
68 56 50
68 57 74
68 58 80
68 59 75
68 60 84
68 61 17
68 62 48
68 63 56
68 64 60
68 65 56
68 66 57
68 67 21
69 0 36
69 1 71
69 2 16
69 3 77
69 4 97
69 5 46
69 6 33
69 7 88
69 8 90
69 9 23
69 10 89
69 11 16
69 12 82
69 13 54
69 14 27
69 15 65
69 16 40
69 17 5
69 18 7
69 19 82
69 20 47
69 21 32
69 22 88
69 23 52
69 24 96
69 25 29
69 26 78
69 27 92
69 28 30
69 29 13
69 30 40
69 31 52
69 32 21
69 33 25
69 34 47
69 35 48
69 36 12
69 37 19
69 38 39
69 39 8
69 40 46
69 41 97
69 42 3
69 43 95
69 44 71
69 45 11
69 46 96
69 47 37
69 48 5
69 49 25
69 50 78
69 51 92
69 52 70
69 53 20
69 54 16
69 55 7
69 56 57
69 57 83
69 58 88
69 59 61
69 60 65
69 61 10
69 62 95
69 63 8
69 64 29
69 65 14
69 66 54
69 67 45
69 68 47
